32	0

0	1	2
4	1	3
9	2	4	5
1	1	6
8	1	6
9	1	7
7	1	8
2	1	9
4	1	10
3	1	11
4	1	12
5	1	13
7	1	14
2	1	15
9	1	16
6	1	17
9	1	18
8	1	19
6	2	20	21
6	1	22
10	1	22
9	1	23
3	2	24	25
9	1	26
2	1	26
2	1	27
3	1	28
1	1	29
6	1	30
5	1	31
9	1	32
0	0
